HUN,8,6,243
1,99,2,53,4,36,3,74,0,76,5,90
5,49,2,92,3,27,1,47,0,44,4,7
1,61,0,58,3,50,4,60,2,58,5,89
3,34,5,72,1,86,4,17,0,70,2,17
2,4,4,82,0,54,1,14,5,76,3,31
1,64,2,77,3,40,0,24,5,58,4,7
3,47,4,50,0,87,2,86,5,7,1,57
1,44,0,13,2,14,3,9,4,77,5,95
